solution status: optimal solution found
objective value:                     190163.864265023
d11(0,0)                                            1 	(obj:0)
d11(1,1)                                            1 	(obj:0)
d11(2,3)                                            1 	(obj:0)
d11(2,5)                                            1 	(obj:0)
d11(3,7)                                            1 	(obj:0)
d11(3,8)                                            1 	(obj:0)
d11(3,9)                                            1 	(obj:0)
d11(3,11)                                           1 	(obj:0)
d11(3,12)                                           1 	(obj:0)
d11(3,13)                                           1 	(obj:0)
d11(4,17)                                           1 	(obj:0)
d11(4,19)                                           1 	(obj:0)
d11(4,21)                                           1 	(obj:0)
d11(4,23)                                           1 	(obj:0)
d11(4,25)                                           1 	(obj:0)
d11(4,27)                                           1 	(obj:0)
d11(5,31)                                           1 	(obj:0)
d11(5,32)                                           1 	(obj:0)
d11(5,33)                                           1 	(obj:0)
d11(5,34)                                           1 	(obj:0)
d11(5,35)                                           1 	(obj:0)
d11(5,36)                                           1 	(obj:0)
d11(5,37)                                           1 	(obj:0)
d11(5,38)                                           1 	(obj:0)
d11(5,39)                                           1 	(obj:0)
d11(5,40)                                           1 	(obj:0)
d11(5,41)                                           1 	(obj:0)
d11(5,42)                                           1 	(obj:0)
d11(5,43)                                           1 	(obj:0)
d11(5,44)                                           1 	(obj:0)
d11(5,45)                                           1 	(obj:0)
d11(5,46)                                           1 	(obj:0)
d11(5,47)                                           1 	(obj:0)
d11(5,48)                                           1 	(obj:0)
d11(5,49)                                           1 	(obj:0)
d11(5,51)                                           1 	(obj:0)
d11(5,52)                                           1 	(obj:0)
d11(5,53)                                           1 	(obj:0)
d11(5,54)                                           1 	(obj:0)
d11(5,55)                                           1 	(obj:0)
d11(5,56)                                           1 	(obj:0)
d11(5,57)                                           1 	(obj:0)
d11(5,58)                                           1 	(obj:0)
d11(5,59)                                           1 	(obj:0)
d11(5,60)                                           1 	(obj:0)
d11(5,61)                                           1 	(obj:0)
d11(5,62)                                           1 	(obj:0)
d12(2,4)                                            1 	(obj:0)
d12(2,6)                                            1 	(obj:0)
d12(4,16)                                           1 	(obj:0)
d12(4,18)                                           1 	(obj:0)
d12(4,20)                                           1 	(obj:0)
d12(4,22)                                           1 	(obj:0)
d12(4,24)                                           1 	(obj:0)
d12(4,26)                                           1 	(obj:0)
d12(4,28)                                           1 	(obj:0)
d12(4,30)                                           1 	(obj:0)
d21(4,15)                                           1 	(obj:0)
d21(5,31)                                           1 	(obj:0)
d21(5,32)                                           1 	(obj:0)
d21(5,33)                                           1 	(obj:0)
d21(5,34)                                           1 	(obj:0)
d21(5,35)                                           1 	(obj:0)
d21(5,37)                                           1 	(obj:0)
d21(5,39)                                           1 	(obj:0)
d21(5,40)                                           1 	(obj:0)
d21(5,41)                                           1 	(obj:0)
d21(5,43)                                           1 	(obj:0)
d21(5,47)                                           1 	(obj:0)
d21(5,49)                                           1 	(obj:0)
d21(5,55)                                           1 	(obj:0)
STE(1,1)                             11382.7501011112 	(obj:0)
STE(0,0)                                        14175 	(obj:0)
STE(1,2)                                        13041 	(obj:0)
STE(2,3)                             9071.99979999966 	(obj:0)
STE(2,4)                             10517.7764955598 	(obj:0)
STE(2,5)                             10730.2496988885 	(obj:0)
STE(2,6)                             12176.0263944486 	(obj:0)
STE(3,7)                             6279.74990111085 	(obj:0)
STE(3,8)                             7937.99979999966 	(obj:0)
STE(3,9)                             7725.52659667096 	(obj:0)
STE(3,10)                            9383.77649555978 	(obj:0)
STE(3,11)                            7937.99979999969 	(obj:0)
STE(3,12)                            9596.24969888851 	(obj:0)
STE(3,13)                            9383.77649555981 	(obj:0)
STE(3,14)                            11042.0263944486 	(obj:0)
STE(4,15)                            5145.74990111085 	(obj:0)
STE(4,16)                            6461.96398698735 	(obj:0)
STE(4,17)                            6803.99979999966 	(obj:0)
STE(4,18)                            8120.21388587617 	(obj:0)
STE(4,19)                            6591.52659667096 	(obj:0)
STE(4,20)                            7907.74068254747 	(obj:0)
STE(4,21)                            8249.77649555978 	(obj:0)
STE(4,22)                            9565.99058143629 	(obj:0)
STE(4,23)                            6803.99979999969 	(obj:0)
STE(4,24)                             8120.2138858762 	(obj:0)
STE(4,25)                            8462.24969888851 	(obj:0)
STE(4,26)                            9778.46378476502 	(obj:0)
STE(4,27)                            8249.77649555981 	(obj:0)
STE(4,28)                            9565.99058143631 	(obj:0)
STE(4,29)                            9908.02639444863 	(obj:0)
STE(4,30)                            11224.2404803251 	(obj:0)
STE(5,31)                              2353.500002222 	(obj:0)
STE(5,32)                            4011.74990111082 	(obj:0)
STE(5,33)                            3669.71408809851 	(obj:0)
STE(5,34)                            5327.96398698732 	(obj:0)
STE(5,35)                            4011.74990111082 	(obj:0)
STE(5,36)                            5669.99979999966 	(obj:0)
STE(5,37)                            5327.96398698732 	(obj:0)
STE(5,38)                            6986.21388587614 	(obj:0)
STE(5,39)                            3799.27669778212 	(obj:0)
STE(5,40)                            5457.52659667096 	(obj:0)
STE(5,41)                            5115.49078365862 	(obj:0)
STE(5,42)                            6773.74068254729 	(obj:0)
STE(5,43)                            5457.52659667093 	(obj:0)
STE(5,44)                            7115.77649555975 	(obj:0)
STE(5,45)                            6773.74068254744 	(obj:0)
STE(5,46)                            8431.99058143626 	(obj:0)
STE(5,47)                            4011.74990111085 	(obj:0)
STE(5,48)                            5669.99979999966 	(obj:0)
STE(5,49)                            5327.96398698735 	(obj:0)
STE(5,50)                             6986.2138858762 	(obj:0)
STE(5,51)                                   5669.9998 	(obj:0)
STE(5,52)                            7328.24969888851 	(obj:0)
STE(5,53)                            6986.21388587617 	(obj:0)
STE(5,54)                            8644.46378476499 	(obj:0)
STE(5,55)                            5457.52659667096 	(obj:0)
STE(5,56)                            7115.77649555981 	(obj:0)
STE(5,57)                            6773.74068254747 	(obj:0)
STE(5,58)                            8431.99058143629 	(obj:0)
STE(5,59)                            7115.77649555978 	(obj:0)
STE(5,60)                            8774.02639444863 	(obj:0)
STE(5,61)                            8431.99058143629 	(obj:0)
STE(5,62)                            10090.2404803251 	(obj:0)
y1(5,39)                             1492.42490899996 	(obj:0)
y1(5,41)                             1492.42490899996 	(obj:0)
y1(5,43)                             1492.42490899996 	(obj:0)
y1(5,45)                             1492.42490899996 	(obj:0)
y1(5,47)                             1492.42490899996 	(obj:0)
y1(5,49)                             1492.42490899996 	(obj:0)
y1(5,51)                             1492.42490899966 	(obj:0)
y1(5,53)                             1492.42490899996 	(obj:0)
y1(5,55)                             1492.42490899996 	(obj:0)
y1(5,57)                             1492.42490899996 	(obj:0)
y1(5,59)                             1492.42490899996 	(obj:0)
y1(5,61)                             1492.42490899996 	(obj:0)
AVE(1)                                   3216.9117036 	(obj:0)
AVE(2)                                   3366.1541945 	(obj:0)
AVE(3)                                   3515.3966854 	(obj:0)
WB(4)                                3515.39406545826 	(obj:0)
AVE(4)                               3515.39406545826 	(obj:0)
AVE(5)                               3167.15385943327 	(obj:0)
WG(1)                                    3216.9117036 	(obj:10)
WG(2)                                    3366.1541945 	(obj:10)
WG(3)                                    3515.3966854 	(obj:10)
WG(5)                                3167.15385943327 	(obj:10)
BG(1)                                979.380795379592 	(obj:10)
BG(2)                                387.944796316668 	(obj:10)
BG(3)                                 680.89581357959 	(obj:10)
BG(4)                                2673.40993877551 	(obj:10)
BG(5)                                1029.13863954632 	(obj:10)
y1(1,1)                              1492.42490899996 	(obj:0)
y1(2,3)                              1059.07527100034 	(obj:0)
y1(2,5)                              1059.07527100034 	(obj:0)
y1(3,7)                              1492.42490899994 	(obj:0)
y1(3,9)                              1492.42490899994 	(obj:0)
y1(3,11)                             1492.42490899994 	(obj:0)
y1(3,13)                             1492.42490899994 	(obj:0)
y1(5,31)                             1492.42490899996 	(obj:0)
y1(5,33)                             1492.42490899996 	(obj:0)
y1(5,35)                             1492.42490899996 	(obj:0)
y1(5,37)                             1492.42490899996 	(obj:0)
y2(2,4)                              283.185678366973 	(obj:0)
y2(2,6)                              283.185678366974 	(obj:0)
y2(4,16)                             1385.48851144895 	(obj:0)
y2(4,18)                             1385.48851144895 	(obj:0)
y2(4,20)                             1385.48851144895 	(obj:0)
y2(4,22)                             1385.48851144895 	(obj:0)
y2(4,24)                             1385.48851144895 	(obj:0)
y2(4,26)                             1385.48851144895 	(obj:0)
y2(4,28)                             1385.48851144895 	(obj:0)
y2(4,30)                             1385.48851144895 	(obj:0)
